c generated by sgen
p cnf 53 116
-2 -3 -4 0
-1 -3 -4 0
-1 -2 -4 0
-1 -2 -3 0
-6 -7 -8 0
-5 -7 -8 0
-5 -6 -8 0
-5 -6 -7 0
-10 -11 -12 0
-9 -11 -12 0
-9 -10 -12 0
-9 -10 -11 0
-14 -15 -16 0
-13 -15 -16 0
-13 -14 -16 0
-13 -14 -15 0
-18 -19 -20 0
-17 -19 -20 0
-17 -18 -20 0
-17 -18 -19 0
-22 -23 -24 0
-21 -23 -24 0
-21 -22 -24 0
-21 -22 -23 0
-26 -27 -28 0
-25 -27 -28 0
-25 -26 -28 0
-25 -26 -27 0
-30 -31 -32 0
-29 -31 -32 0
-29 -30 -32 0
-29 -30 -31 0
-34 -35 -36 0
-33 -35 -36 0
-33 -34 -36 0
-33 -34 -35 0
-38 -39 -40 0
-37 -39 -40 0
-37 -38 -40 0
-37 -38 -39 0
-42 -43 -44 0
-41 -43 -44 0
-41 -42 -44 0
-41 -42 -43 0
-46 -47 -48 0
-45 -47 -48 0
-45 -46 -48 0
-45 -46 -47 0
-49 -50 -51 0
-49 -50 -52 0
-49 -50 -53 0
-49 -51 -52 0
-49 -51 -53 0
-49 -52 -53 0
-50 -51 -52 0
-50 -51 -53 0
-50 -52 -53 0
-51 -52 -53 0
37 27 45 0
24 27 45 0
24 37 45 0
24 37 27 0
19 2 7 0
26 2 7 0
26 19 7 0
26 19 2 0
49 20 39 0
29 20 39 0
29 49 39 0
29 49 20 0
4 36 6 0
47 36 6 0
47 4 6 0
47 4 36 0
16 40 8 0
10 40 8 0
10 16 8 0
10 16 40 0
38 44 33 0
53 44 33 0
53 38 33 0
53 38 44 0
14 30 25 0
35 30 25 0
35 14 25 0
35 14 30 0
42 17 15 0
48 17 15 0
48 42 15 0
48 42 17 0
3 13 50 0
22 13 50 0
22 3 50 0
22 3 13 0
51 28 46 0
9 28 46 0
9 51 46 0
9 51 28 0
18 12 34 0
23 12 34 0
23 18 34 0
23 18 12 0
1 11 32 0
41 11 32 0
41 1 32 0
41 1 11 0
31 5 21 0
31 5 43 0
31 5 52 0
31 21 43 0
31 21 52 0
31 43 52 0
5 21 43 0
5 21 52 0
5 43 52 0
21 43 52 0
